(declare-fun b_ack!753 () (_ BitVec 64))
(declare-fun a_ack!754 () (_ BitVec 64))
(assert (not (fp.leq ((_ to_fp 11 53) b_ack!753) ((_ to_fp 11 53) #x0000000000000000))))
(assert (fp.lt ((_ to_fp 11 53) a_ack!754) ((_ to_fp 11 53) #x0000000000000000)))
(assert (not (fp.eq ((_ to_fp 11 53) b_ack!753) ((_ to_fp 11 53) #x0000000000000000))))
(assert (not (fp.eq (fp.abs ((_ to_fp 11 53) b_ack!753))
            ((_ to_fp 11 53) #x0000000000000000))))
(assert (fp.eq (fp.div roundNearestTiesToEven
               (fp.mul roundNearestTiesToEven
                       ((_ to_fp 11 53) b_ack!753)
                       ((_ to_fp 11 53) b_ack!753))
               ((_ to_fp 11 53) b_ack!753))
       ((_ to_fp 11 53) b_ack!753)))
(assert (not (fp.eq (fp.abs ((_ to_fp 11 53) b_ack!753))
            ((_ to_fp 11 53) #x0000000000000000))))
(assert (fp.eq (fp.div roundNearestTiesToEven
               (fp.mul roundNearestTiesToEven
                       ((_ to_fp 11 53) b_ack!753)
                       ((_ to_fp 11 53) b_ack!753))
               ((_ to_fp 11 53) b_ack!753))
       ((_ to_fp 11 53) b_ack!753)))
(assert (let ((a!1 (fp.sub roundNearestTiesToEven
                   (fp.add roundNearestTiesToEven
                           (fp.sub roundNearestTiesToEven
                                   ((_ to_fp 11 53) #x8000000000000000)
                                   ((_ to_fp 11 53) a_ack!754))
                           ((_ to_fp 11 53) #x3ff0000000000000))
                   (fp.sub roundNearestTiesToEven
                           ((_ to_fp 11 53) #x8000000000000000)
                           ((_ to_fp 11 53) a_ack!754)))))
  (fp.eq a!1 ((_ to_fp 11 53) #x3ff0000000000000))))
(assert (let ((a!1 (fp.sub roundNearestTiesToEven
                   (fp.add roundNearestTiesToEven
                           (fp.sub roundNearestTiesToEven
                                   ((_ to_fp 11 53) #x8000000000000000)
                                   ((_ to_fp 11 53) a_ack!754))
                           ((_ to_fp 11 53) #x3ff0000000000000))
                   ((_ to_fp 11 53) #x3ff0000000000000))))
  (fp.eq a!1
         (fp.sub roundNearestTiesToEven
                 ((_ to_fp 11 53) #x8000000000000000)
                 ((_ to_fp 11 53) a_ack!754)))))
(assert (let ((a!1 (fp.mul roundNearestTiesToEven
                   ((_ to_fp 11 53) #x4024000000000000)
                   (fp.add roundNearestTiesToEven
                           (fp.sub roundNearestTiesToEven
                                   ((_ to_fp 11 53) #x8000000000000000)
                                   ((_ to_fp 11 53) a_ack!754))
                           ((_ to_fp 11 53) #x3ff0000000000000)))))
  (not (fp.lt (fp.mul roundNearestTiesToEven
                      ((_ to_fp 11 53) b_ack!753)
                      ((_ to_fp 11 53) b_ack!753))
              a!1))))
(assert (fp.gt (fp.sub roundNearestTiesToEven
               ((_ to_fp 11 53) #x8000000000000000)
               ((_ to_fp 11 53) a_ack!754))
       ((_ to_fp 11 53) #x4049000000000000)))
(assert (not (fp.leq ((_ to_fp 11 53) b_ack!753) ((_ to_fp 11 53) #x0000000000000000))))
(assert (not (fp.leq (fp.sub roundNearestTiesToEven
                     ((_ to_fp 11 53) #x8000000000000000)
                     ((_ to_fp 11 53) a_ack!754))
             ((_ to_fp 11 53) #x0000000000000000))))
(assert (let ((a!1 (fp.eq (fp.abs (fp.sub roundNearestTiesToEven
                                  ((_ to_fp 11 53) #x8000000000000000)
                                  ((_ to_fp 11 53) a_ack!754)))
                  ((_ to_fp 11 53) #x0000000000000000))))
  (not a!1)))
(assert (let ((a!1 (fp.mul roundNearestTiesToEven
                   (fp.div roundNearestTiesToEven
                           ((_ to_fp 11 53) b_ack!753)
                           (fp.sub roundNearestTiesToEven
                                   ((_ to_fp 11 53) #x8000000000000000)
                                   ((_ to_fp 11 53) a_ack!754)))
                   (fp.sub roundNearestTiesToEven
                           ((_ to_fp 11 53) #x8000000000000000)
                           ((_ to_fp 11 53) a_ack!754)))))
  (not (fp.eq a!1 ((_ to_fp 11 53) b_ack!753)))))
(assert (let ((a!1 (fp.abs (fp.div roundNearestTiesToEven
                           ((_ to_fp 11 53) b_ack!753)
                           (fp.sub roundNearestTiesToEven
                                   ((_ to_fp 11 53) #x8000000000000000)
                                   ((_ to_fp 11 53) a_ack!754))))))
  (not (fp.eq a!1 ((_ to_fp 11 53) #x0000000000000000)))))
(assert (let ((a!1 (fp.div roundNearestTiesToEven
                   ((_ to_fp 11 53) b_ack!753)
                   (fp.div roundNearestTiesToEven
                           ((_ to_fp 11 53) b_ack!753)
                           (fp.sub roundNearestTiesToEven
                                   ((_ to_fp 11 53) #x8000000000000000)
                                   ((_ to_fp 11 53) a_ack!754))))))
  (fp.eq a!1
         (fp.sub roundNearestTiesToEven
                 ((_ to_fp 11 53) #x8000000000000000)
                 ((_ to_fp 11 53) a_ack!754)))))

(check-sat)
(exit)
